(set-logic BV) (define-fun origCir ((i23 Bool) (i22 Bool) (i21 Bool) (i20 Bool)) Bool (and (and (and (not i22) (not i21)) (not i23)) (not i20))) (synth-fun skel ((i23 Bool) (i22 Bool) (i21 Bool) (i20 Bool)) Bool) (declare-var i23 Bool) (declare-var i22 Bool) (declare-var i21 Bool) (declare-var i20 Bool) (constraint (= (origCir i23 i22 i21 i20) (skel i23 i22 i21 i20))) (check-synth)
